p cnf 12 50 
9 4 -3 0
5 4 6 0
-1 3 7 0
-8 -10 7 0
-10 4 11 0
11 5 6 0
10 8 4 0
-2 -7 4 0
3 -4 9 0
-1 5 8 0
-1 -3 7 0
11 3 -10 0
-10 -11 12 0
10 -6 -11 0
-2 11 9 0
9 -12 2 0
-11 -9 7 0
6 12 -7 0
11 8 -12 0
-6 -11 -10 0
3 11 -4 0
7 12 -6 0
6 7 11 0
1 -5 6 0
8 -7 -3 0
-3 -5 -10 0
-1 3 -7 0
-3 -6 -12 0
2 12 3 0
10 1 4 0
-7 10 -6 0
7 -12 1 0
10 -6 11 0
4 9 1 0
2 -7 10 0
-2 -12 9 0
4 6 8 0
6 1 -5 0
9 -5 10 0
10 4 11 0
-9 6 -12 0
-9 -11 -4 0
-8 -10 9 0
-2 12 -6 0
3 -1 -8 0
8 -12 7 0
7 6 -4 0
-7 -6 8 0
-3 2 4 0
-2 5 -12 0
